Version identifier: 20.1.0.0 | 2020-11-10 | 9bedb6d68
CPXPARAM_Threads                                 1
CPXPARAM_TimeLimit                               7200
CPXPARAM_MIP_Tolerances_MIPGap                   0
Generic callback                                 0x60
1 of 1 MIP starts provided solutions.
MIP start 'm1' defined initial solution with objective 3228.6616.
Tried aggregator 1 time.
Reduced MIP has 1 rows, 501 columns, and 500 nonzeros.
Reduced MIP has 500 binaries, 0 generals, 0 SOSs, and 0 indicators.
Presolve time = 0.00 sec. (0.15 ticks)
Probing time = 0.00 sec. (0.05 ticks)
Tried aggregator 1 time.
Reduced MIP has 1 rows, 501 columns, and 500 nonzeros.
Reduced MIP has 500 binaries, 0 generals, 0 SOSs, and 0 indicators.
Presolve time = 0.00 sec. (0.15 ticks)
Probing time = 0.00 sec. (0.05 ticks)
MIP emphasis: balance optimality and feasibility.
MIP search method: dynamic search.
Parallel mode: none, using 1 thread.
Root relaxation solution time = 0.00 sec. (0.10 ticks)

        Nodes                                         Cuts/
   Node  Left     Objective  IInf  Best Integer    Best Bound    ItCnt     Gap

*     0+    0                         3228.6616     4368.0000            35.29%
      0     0     4368.0000     2     3228.6616     4368.0000        0   35.29%
      0     0     4120.1499     3     3228.6616 UserPurge2: 1       15   27.61%
      0     0     3896.6112     4     3228.6616 UserPurge2: 1       30   20.69%
      0     0     3762.3089     6     3228.6616 UserPurge2: 1       51   16.53%
      0     0     3611.9446     6     3228.6616 UserPurge2: 1       60   11.87%
      0     0     3556.6421     8     3228.6616 UserPurge1: 1       62   10.16%
      0     0     3517.5539     7     3228.6616 UserPurge2: 1       77    8.95%
      0     0     3467.6130     8     3228.6616 UserPurge2: 1       91    7.40%
      0     0     3426.2650     9     3228.6616 UserPurge2: 1      104    6.12%
      0     0     3404.5293     9     3228.6616 UserPurge2: 1      120    5.45%
      0     0     3394.1658    10     3228.6616 UserPurge2: 1      144    5.13%
      0     0     3366.3646     9     3228.6616 UserPurge2: 1      164    4.27%
      0     0     3358.2541    10     3228.6616 UserPurge2: 1      178    4.01%
      0     0     3353.9916    11     3228.6616 UserPurge1: 1      183    3.88%
      0     0     3349.3256    13     3228.6616 UserPurge2: 1      198    3.74%
      0     0     3347.4057    13     3228.6616 UserPurge2: 1      208    3.68%
      0     0     3346.8358    15     3228.6616 UserPurge1: 1      212    3.66%
      0     0     3343.7230    16     3228.6616 UserPurge2: 1      243    3.56%
      0     0     3337.6913    16     3228.6616 UserPurge2: 1      268    3.38%
      0     0     3336.8139    18     3228.6616 UserPurge1: 1      278    3.35%
      0     0     3333.0104    16     3228.6616 UserPurge2: 1      294    3.23%
      0     0     3330.9583    17     3228.6616 UserPurge2: 1      321    3.17%
      0     0     3330.3146    19     3228.6616 UserPurge1: 1      331    3.15%
      0     0     3328.5097    19     3228.6616 UserPurge2: 1      356    3.09%
      0     0     3326.2684    18     3228.6616 UserPurge2: 1      382    3.02%
      0     0     3323.4113    19     3228.6616 UserPurge2: 1      406    2.93%
      0     0     3322.1817    19     3228.6616 UserPurge2: 1      422    2.90%
      0     0     3320.3466    18     3228.6616 UserPurge2: 1      452    2.84%
      0     0     3312.5501    17     3228.6616 UserPurge2: 1      470    2.60%
      0     0     3309.7235    15     3228.6616 UserPurge2: 1      497    2.51%
      0     0     3307.0949    15     3228.6616 UserPurge2: 1      517    2.43%
      0     0     3304.2083    15     3228.6616 UserPurge2: 1      533    2.34%
      0     0     3302.9458    16     3228.6616 UserPurge2: 1      542    2.30%
      0     0     3301.4302    15     3228.6616 UserPurge2: 1      560    2.25%
      0     0     3299.9456    15     3228.6616 UserPurge2: 1      580    2.21%
      0     0     3299.2658    16     3228.6616 UserPurge2: 1      592    2.19%
      0     0     3298.0789    16     3228.6616 UserPurge2: 1      610    2.15%
      0     0     3296.7263    18     3228.6616 UserPurge2: 1      625    2.11%
      0     0     3295.4174    16     3228.6616 UserPurge2: 1      650    2.07%
      0     0     3294.4829    17     3228.6616 UserPurge2: 1      671    2.04%
      0     0     3293.9062    18     3228.6616 UserPurge2: 1      697    2.02%
      0     0     3292.8887    15     3228.6616 UserPurge2: 1      713    1.99%
      0     0     3292.5990    17     3228.6616 UserPurge2: 1      727    1.98%
      0     0     3291.3971    16     3228.6616 UserPurge2: 1      746    1.94%
      0     0     3290.8902    17     3228.6616 UserPurge2: 1      758    1.93%
      0     0     3290.5363    19     3228.6616 UserPurge2: 1      768    1.92%
      0     0     3290.1299    18     3228.6616 UserPurge2: 1      778    1.90%
      0     0     3289.3752    18     3228.6616 UserPurge2: 1      802    1.88%
      0     0     3288.9109    19     3228.6616 UserPurge2: 1      815    1.87%
      0     0     3288.5975    20     3228.6616 UserPurge2: 1      822    1.86%
      0     0     3288.1693    20     3228.6616 UserPurge2: 1      861    1.84%
      0     0     3287.3751    20     3228.6616 UserPurge2: 1      883    1.82%
      0     0     3286.6969    20     3228.6616 UserPurge2: 1      910    1.80%
      0     0     3284.6215    18     3228.6616 UserPurge2: 1      957    1.73%
      0     0     3283.7126    18     3228.6616 UserPurge2: 1      981    1.71%
      0     0     3282.9586    19     3228.6616 UserPurge2: 1      998    1.68%
      0     0     3282.2942    20     3228.6616 UserPurge2: 1     1016    1.66%
      0     0     3281.7233    20     3228.6616 UserPurge2: 1     1044    1.64%
      0     0     3281.4669    22     3228.6616 UserPurge2: 1     1057    1.64%
      0     0     3279.9912    19     3228.6616 UserPurge2: 1     1101    1.59%
      0     0     3279.3330    21     3228.6616 UserPurge2: 1     1126    1.57%
      0     0     3277.8110    18     3228.6616 UserPurge2: 1     1158    1.52%
      0     0     3276.6521    18     3228.6616 UserPurge2: 1     1170    1.49%
      0     0     3275.6422    17     3228.6616 UserPurge2: 1     1196    1.46%
      0     0     3275.3993    18     3228.6616 UserPurge2: 1     1208    1.45%
      0     0     3275.1998    18     3228.6616 UserPurge2: 1     1221    1.44%
      0     0     3274.8923    20     3228.6616 UserPurge2: 1     1243    1.43%
      0     0     3274.0158    19     3228.6616 UserPurge2: 1     1266    1.40%
      0     0     3272.8701    17     3228.6616 UserPurge2: 1     1289    1.37%
      0     0     3272.4626    18     3228.6616 UserPurge2: 1     1301    1.36%
      0     0     3272.3569    19     3228.6616 UserPurge2: 1     1313    1.35%
      0     0     3271.7887    19     3228.6616 UserPurge2: 1     1328    1.34%
      0     0     3271.2828    18     3228.6616 UserPurge2: 1     1344    1.32%
      0     0     3271.0704    18     3228.6616 UserPurge2: 1     1354    1.31%
      0     0     3270.4908    18     3228.6616 UserPurge2: 1     1367    1.30%
      0     0     3270.2541    18     3228.6616 UserPurge2: 1     1378    1.29%
      0     0     3270.0570    19     3228.6616 UserPurge2: 1     1391    1.28%
      0     0     3269.8106    20     3228.6616 UserPurge2: 1     1413    1.27%
      0     0     3269.6646    20     3228.6616 UserPurge2: 1     1429    1.27%
      0     0     3269.5381    20     3228.6616 UserPurge2: 1     1449    1.27%
      0     0     3269.3624    21     3228.6616 UserPurge2: 1     1463    1.26%
      0     0     3268.9316    20     3228.6616 UserPurge2: 1     1487    1.25%
      0     0     3267.9681    20     3228.6616 UserPurge2: 1     1520    1.22%
      0     0     3267.3384    20     3228.6616 UserPurge2: 1     1538    1.20%
      0     0     3266.8948    18     3228.6616 UserPurge2: 1     1556    1.18%
      0     0     3266.6359    19     3228.6616 UserPurge2: 1     1573    1.18%
      0     0     3266.5432    20     3228.6616 UserPurge2: 1     1582    1.17%
      0     0     3266.4831    20     3228.6616 UserPurge2: 1     1594    1.17%
      0     0     3266.4258    21     3228.6616 UserPurge2: 1     1604    1.17%
      0     0     3266.2074    22     3228.6616 UserPurge2: 1     1621    1.16%
      0     0     3266.1097    23     3228.6616 UserPurge2: 1     1631    1.16%
      0     0     3265.8855    23     3228.6616 UserPurge2: 1     1652    1.15%
      0     0     3265.6822    24     3228.6616 UserPurge2: 1     1666    1.15%
      0     0     3265.4701    23     3228.6616 UserPurge2: 1     1693    1.14%
      0     0     3265.0920    22     3228.6616 UserPurge2: 1     1721    1.13%
      0     0     3264.9341    23     3228.6616 UserPurge2: 1     1733    1.12%
      0     0     3264.6885    23     3228.6616 UserPurge2: 1     1752    1.12%
      0     0     3264.4945    24     3228.6616 UserPurge2: 1     1769    1.11%
      0     0     3264.2513    23     3228.6616 UserPurge2: 1     1795    1.10%
      0     0     3264.1011    24     3228.6616 UserPurge2: 1     1806    1.10%
      0     0     3263.8500    22     3228.6616 UserPurge2: 1     1825    1.09%
      0     0     3263.5757    22     3228.6616 UserPurge2: 1     1850    1.08%
      0     0     3263.4761    23     3228.6616 UserPurge2: 1     1861    1.08%
      0     0     3263.3387    23     3228.6616 UserPurge2: 1     1890    1.07%
      0     0     3263.2799    24     3228.6616 UserPurge2: 1     1908    1.07%
      0     0     3263.0245    24     3228.6616 UserPurge2: 1     1937    1.06%
      0     0     3262.9440    25     3228.6616 UserPurge2: 1     1952    1.06%
      0     0     3262.7975    24     3228.6616 UserPurge2: 1     1976    1.06%
      0     0     3262.6593    25     3228.6616 UserPurge2: 1     1991    1.05%
      0     0     3262.5953    26     3228.6616 UserPurge2: 1     2004    1.05%
      0     0     3262.4052    27     3228.6616 UserPurge2: 1     2026    1.05%
      0     0     3262.3295    25     3228.6616 UserPurge2: 1     2048    1.04%
      0     0     3262.2239    26     3228.6616 UserPurge2: 1     2066    1.04%
      0     0     3261.9748    26     3228.6616 UserPurge2: 1     2106    1.03%
      0     0     3261.8877    26     3228.6616 UserPurge2: 1     2124    1.03%
      0     0     3261.7523    27     3228.6616 UserPurge2: 1     2147    1.02%
      0     0     3261.5190    28     3228.6616 UserPurge2: 1     2176    1.02%
      0     0     3261.1942    28     3228.6616 UserPurge2: 1     2202    1.01%
      0     0     3260.7630    26     3228.6616 UserPurge2: 1     2240    0.99%
      0     0     3260.3932    25     3228.6616 UserPurge2: 1     2268    0.98%
      0     0     3260.2099    26     3228.6616 UserPurge2: 1     2287    0.98%
      0     0     3260.1327    27     3228.6616 UserPurge2: 1     2300    0.97%
      0     0     3259.9945    27     3228.6616 UserPurge2: 1     2318    0.97%
      0     0     3259.7305    27     3228.6616 UserPurge2: 1     2344    0.96%
      0     0     3259.4893    27     3228.6616 UserPurge2: 1     2359    0.95%
      0     0     3259.1884    26     3228.6616 UserPurge2: 1     2386    0.95%
      0     0     3258.9594    26     3228.6616 UserPurge2: 1     2406    0.94%
      0     0     3258.8147    26     3228.6616 UserPurge2: 1     2424    0.93%
      0     0     3258.4481    26     3228.6616 UserPurge2: 1     2452    0.92%
      0     0     3258.2765    25     3228.6616 UserPurge2: 1     2472    0.92%
      0     0     3258.2058    25     3228.6616 UserPurge2: 1     2484    0.92%
      0     0     3258.0054    26     3228.6616 UserPurge2: 1     2499    0.91%
      0     0     3257.9017    26     3228.6616 UserPurge2: 1     2514    0.91%
      0     0     3257.6422    26     3228.6616 UserPurge2: 1     2535    0.90%
      0     0     3257.4667    27     3228.6616 UserPurge2: 1     2565    0.89%
      0     0     3257.3779    26     3228.6616 UserPurge2: 1     2583    0.89%
      0     0     3257.1727    27     3228.6616 UserPurge2: 1     2608    0.88%
      0     0     3257.1109    28     3228.6616 UserPurge2: 1     2624    0.88%
      0     0     3257.0019    28     3228.6616 UserPurge2: 1     2655    0.88%
      0     0     3256.7605    28     3228.6616 UserPurge2: 1     2677    0.87%
      0     0     3256.6447    29     3228.6616 UserPurge2: 1     2690    0.87%
      0     0     3256.5367    28     3228.6616 UserPurge2: 1     2708    0.86%
      0     0     3256.4104    28     3228.6616 UserPurge2: 1     2728    0.86%
      0     0     3256.3676    29     3228.6616 UserPurge2: 1     2747    0.86%
      0     0     3256.2508    28     3228.6616 UserPurge2: 1     2761    0.85%
      0     0     3256.1574    29     3228.6616 UserPurge2: 1     2778    0.85%
      0     0     3256.0090    29     3228.6616 UserPurge2: 1     2800    0.85%
      0     0     3255.9084    29     3228.6616 UserPurge2: 1     2816    0.84%
      0     0     3255.7869    30     3228.6616 UserPurge2: 1     2841    0.84%
      0     0     3255.6818    31     3228.6616 UserPurge2: 1     2861    0.84%
      0     0     3255.4536    31     3228.6616 UserPurge2: 1     2894    0.83%
      0     0     3254.9219    29     3228.6616 UserPurge2: 1     2920    0.81%
      0     0     3254.6989    28     3228.6616 UserPurge2: 1     2951    0.81%
      0     0     3254.5397    28     3228.6616 UserPurge2: 1     2972    0.80%
      0     0     3254.4531    29     3228.6616 UserPurge2: 1     2990    0.80%
      0     0     3254.3301    29     3228.6616 UserPurge2: 1     3008    0.80%
      0     0     3254.0665    28     3228.6616 UserPurge2: 1     3038    0.79%
      0     0     3254.0017    29     3228.6616 UserPurge2: 1     3054    0.78%
      0     0     3253.9421    30     3228.6616 UserPurge2: 1     3064    0.78%
      0     0     3253.9290    30     3228.6616 UserPurge2: 1     3073    0.78%
      0     0     3253.8161    31     3228.6616 UserPurge2: 1     3091    0.78%
      0     0     3253.7304    31     3228.6616 UserPurge2: 1     3109    0.78%
      0     0     3253.6508    31     3228.6616 UserPurge2: 1     3133    0.77%
      0     0     3253.5275    30     3228.6616 UserPurge2: 1     3154    0.77%
      0     0     3253.4388    31     3228.6616 UserPurge2: 1     3171    0.77%
      0     0     3253.3329    31     3228.6616 UserPurge2: 1     3192    0.76%
      0     0     3253.2588    30     3228.6616 UserPurge2: 1     3210    0.76%
      0     0     3253.1240    30     3228.6616 UserPurge2: 1     3239    0.76%
      0     0     3253.0002    31     3228.6616 UserPurge2: 1     3254    0.75%
      0     0     3252.8132    31     3228.6616 UserPurge2: 1     3278    0.75%
      0     0     3252.6352    30     3228.6616 UserPurge2: 1     3301    0.74%
      0     0     3252.4667    31     3228.6616 UserPurge2: 1     3329    0.74%
      0     0     3252.1535    28     3228.6616 UserPurge2: 1     3360    0.73%
      0     0     3252.0449    28     3228.6616 UserPurge2: 1     3375    0.72%
      0     0     3251.8368    29     3228.6616 UserPurge2: 1     3393    0.72%
      0     0     3251.7448    28     3228.6616 UserPurge2: 1     3413    0.71%
      0     0     3251.6490    27     3228.6616 UserPurge2: 1     3434    0.71%
      0     0     3251.6023    27     3228.6616 UserPurge2: 1     3447    0.71%
      0     0     3251.5655    28     3228.6616 UserPurge2: 1     3464    0.71%
      0     0     3251.5433    28     3228.6616 UserPurge2: 1     3477    0.71%
      0     0     3251.5300    29     3228.6616 UserPurge2: 1     3486    0.71%
      0     0     3251.4901    29     3228.6616 UserPurge2: 1     3500    0.71%
      0     0     3251.4566    30     3228.6616 UserPurge2: 1     3517    0.71%
      0     0     3251.4000    30     3228.6616 UserPurge2: 1     3534    0.70%
      0     0     3251.3851    31     3228.6616 UserPurge2: 1     3549    0.70%
*     0+    0                         3234.0064     3251.3851             0.54%
      0     0     3251.3424    30     3234.0064 UserPurge2: 1     3570    0.54%
      0     0     3251.2999    30     3234.0064 UserPurge2: 1     3587    0.53%
      0     0     3251.2482    29     3234.0064 UserPurge2: 1     3603    0.53%
      0     0     3251.1619    30     3234.0064 UserPurge2: 1     3627    0.53%
      0     0     3251.0425    30     3234.0064 UserPurge2: 1     3645    0.53%
      0     0     3250.8516    29     3234.0064 UserPurge2: 1     3668    0.52%
      0     0     3250.6118    29     3234.0064 UserPurge2: 1     3698    0.51%
      0     0     3250.5816    28     3234.0064 UserPurge2: 1     3709    0.51%
      0     0     3250.5519    29     3234.0064 UserPurge2: 1     3728    0.51%
      0     0     3250.4354    30     3234.0064 UserPurge2: 1     3744    0.51%
      0     0     3250.3516    30     3234.0064 UserPurge2: 1     3759    0.51%
      0     0     3250.2901    30     3234.0064 UserPurge2: 1     3775    0.50%
      0     0     3250.1851    29     3234.0064 UserPurge2: 1     3798    0.50%
      0     0     3250.1644    30     3234.0064 UserPurge2: 1     3808    0.50%
      0     0     3250.1016    31     3234.0064 UserPurge2: 1     3833    0.50%
      0     0     3250.0560    31     3234.0064 UserPurge2: 1     3846    0.50%
      0     0     3250.0315    32     3234.0064 UserPurge2: 1     3863    0.50%
*     0+    0                         3239.0856     3250.0315             0.34%
      0     0     3249.9127    32     3239.0856 UserPurge2: 1     3896    0.33%
      0     0     3249.8586    33     3239.0856 UserPurge2: 1     3908    0.33%
      0     0     3249.7697    33     3239.0856 UserPurge2: 1     3930    0.33%
      0     0     3249.6773    32     3239.0856 UserPurge2: 1     3961    0.33%
      0     0     3249.6304    33     3239.0856 UserPurge2: 1     3977    0.33%
      0     0     3249.4775    29     3239.0856 UserPurge2: 1     4005    0.32%
      0     0     3249.3402    30     3239.0856 UserPurge2: 1     4036    0.32%
      0     0     3249.2750    30     3239.0856 UserPurge2: 1     4052    0.31%
      0     0     3249.2100    30     3239.0856 UserPurge2: 1     4073    0.31%
      0     0     3249.1730    31     3239.0856 UserPurge2: 1     4085    0.31%
      0     0     3249.0495    30     3239.0856 UserPurge2: 1     4114    0.31%
      0     0     3249.0181    29     3239.0856 UserPurge2: 1     4128    0.31%
      0     0     3248.9745    30     3239.0856 UserPurge2: 1     4142    0.31%
      0     0     3248.9110    30     3239.0856 UserPurge2: 1     4159    0.30%
      0     0     3248.8608    31     3239.0856 UserPurge2: 1     4179    0.30%
      0     0     3248.8218    31     3239.0856 UserPurge2: 1     4194    0.30%
      0     0     3248.6377    30     3239.0856 UserPurge2: 1     4234    0.29%
      0     0     3248.6106    31     3239.0856 UserPurge2: 1     4244    0.29%
      0     0     3248.4463    31     3239.0856 UserPurge2: 1     4263    0.29%
      0     0     3248.2621    31     3239.0856 UserPurge2: 1     4295    0.28%
      0     0     3248.0774    30     3239.0856 UserPurge2: 1     4327    0.28%
      0     0     3247.9418    29     3239.0856 UserPurge2: 1     4366    0.27%
      0     0     3247.8533    29     3239.0856 UserPurge2: 1     4393    0.27%
      0     0     3247.8052    28     3239.0856 UserPurge2: 1     4413    0.27%
      0     0     3247.7898    29     3239.0856 UserPurge2: 1     4425    0.27%
      0     0     3247.7684    30     3239.0856 UserPurge2: 1     4437    0.27%
      0     0     3247.7189    31     3239.0856 UserPurge2: 1     4470    0.27%
      0     0     3247.6866    30     3239.0856 UserPurge2: 1     4494    0.27%
      0     0     3247.6758    31     3239.0856 UserPurge2: 1     4504    0.27%
      0     0     3247.6630    31     3239.0856 UserPurge2: 1     4518    0.26%
      0     0     3247.6339    31     3239.0856 UserPurge2: 1     4531    0.26%
      0     0     3247.6047    32     3239.0856 UserPurge2: 1     4555    0.26%
      0     0     3247.5686    31     3239.0856 UserPurge2: 1     4574    0.26%
      0     0     3247.5358    32     3239.0856 UserPurge2: 1     4589    0.26%
      0     0     3247.4896    33     3239.0856 UserPurge2: 1     4605    0.26%
      0     0     3247.4506    34     3239.0856 UserPurge2: 1     4619    0.26%
      0     0     3247.4345    33     3239.0856 UserPurge2: 1     4634    0.26%
      0     0     3247.4080    34     3239.0856 UserPurge2: 1     4658    0.26%
      0     0     3247.3785    34     3239.0856 UserPurge2: 1     4684    0.26%
      0     0     3247.2803    34     3239.0856 UserPurge2: 1     4708    0.25%
      0     0     3247.1840    33     3239.0856 UserPurge2: 1     4736    0.25%
      0     0     3247.1367    34     3239.0856 UserPurge2: 1     4758    0.25%
      0     0     3247.0583    34     3239.0856 UserPurge2: 1     4795    0.25%
      0     0     3246.9438    33     3239.0856 UserPurge2: 1     4825    0.24%
      0     0     3246.8659    32     3239.0856 UserPurge2: 1     4856    0.24%
      0     0     3246.8255    33     3239.0856 UserPurge2: 1     4880    0.24%
      0     0     3246.7941    34     3239.0856 UserPurge2: 1     4909    0.24%
      0     0     3246.7380    34     3239.0856 UserPurge2: 1     4934    0.24%
      0     0     3246.6891    33     3239.0856 UserPurge2: 1     4968    0.23%
      0     0     3246.6698    34     3239.0856 UserPurge2: 1     4979    0.23%
      0     0     3246.6213    33     3239.0856 UserPurge2: 1     5004    0.23%
      0     0     3246.5255    32     3239.0856 UserPurge2: 1     5031    0.23%
      0     0     3246.4872    30     3239.0856 UserPurge2: 1     5049    0.23%
      0     0     3246.3791    30     3239.0856 UserPurge2: 1     5074    0.23%
      0     0     3246.2837    30     3239.0856 UserPurge2: 1     5089    0.22%
      0     0     3246.1985    29     3239.0856 UserPurge2: 1     5118    0.22%
      0     0     3246.1684    29     3239.0856 UserPurge2: 1     5136    0.22%
      0     0     3246.1492    30     3239.0856 UserPurge2: 1     5148    0.22%
      0     0     3246.1347    31     3239.0856 UserPurge2: 1     5158    0.22%
      0     0     3246.1185    32     3239.0856 UserPurge2: 1     5178    0.22%
      0     0     3246.0811    31     3239.0856 UserPurge2: 1     5197    0.22%
      0     0     3246.0632    31     3239.0856 UserPurge2: 1     5213    0.22%
      0     0     3246.0516    32     3239.0856 UserPurge2: 1     5228    0.22%
      0     0     3246.0362    31     3239.0856 UserPurge2: 1     5242    0.21%
      0     0     3246.0271    32     3239.0856 UserPurge2: 1     5254    0.21%
      0     0     3246.0104    33     3239.0856 UserPurge2: 1     5269    0.21%
      0     0     3245.9918    34     3239.0856 UserPurge2: 1     5277    0.21%
      0     0     3245.9812    35     3239.0856 UserPurge2: 1     5287    0.21%
      0     0     3245.9143    34     3239.0856 UserPurge2: 1     5317    0.21%
      0     0     3245.8466    35     3239.0856 UserPurge2: 1     5340    0.21%
      0     0     3245.7807    35     3239.0856 UserPurge2: 1     5360    0.21%
      0     0     3245.7457    35     3239.0856 UserPurge2: 1     5378    0.21%
      0     0     3245.6551    34     3239.0856 UserPurge2: 1     5401    0.20%
      0     0     3245.6087    33     3239.0856 UserPurge2: 1     5417    0.20%
      0     0     3245.5850    33     3239.0856 UserPurge2: 1     5432    0.20%
      0     0     3245.5660    33     3239.0856 UserPurge2: 1     5448    0.20%
      0     0     3245.5190    34     3239.0856 UserPurge2: 1     5462    0.20%
      0     0     3245.4881    35     3239.0856 UserPurge2: 1     5470    0.20%
      0     0     3245.4494    35     3239.0856 UserPurge2: 1     5495    0.20%
      0     0     3245.4064    35     3239.0856 UserPurge2: 1     5519    0.20%
      0     0     3245.3470    34     3239.0856 UserPurge2: 1     5539    0.19%
      0     0     3245.3292    34     3239.0856 UserPurge2: 1     5546    0.19%
      0     0     3245.3018    33     3239.0856 UserPurge2: 1     5568    0.19%
      0     0     3245.2759    34     3239.0856 UserPurge2: 1     5578    0.19%
      0     0     3245.2330    30     3239.0856 UserPurge2: 1     5597    0.19%
      0     0     3245.2195    30     3239.0856 UserPurge2: 1     5607    0.19%
      0     0     3245.2112    31     3239.0856 UserPurge2: 1     5613    0.19%
      0     0     3245.2051    32     3239.0856 UserPurge2: 1     5621    0.19%
      0     0     3245.1981    33     3239.0856 UserPurge2: 1     5632    0.19%
      0     0     3245.1866    34     3239.0856 UserPurge2: 1     5643    0.19%
      0     0     3245.1345    34     3239.0856 UserPurge2: 1     5665    0.19%
      0     0     3245.0954    32     3239.0856 UserPurge2: 1     5682    0.19%
      0     0     3245.0543    31     3239.0856 UserPurge2: 1     5705    0.18%
*     0+    0                         3240.0108     3245.0543             0.16%

Repeating presolve.
Tried aggregator 1 time.
MIP Presolve eliminated 0 rows and 136 columns.
Reduced MIP has 1 rows, 365 columns, and 364 nonzeros.
Reduced MIP has 364 binaries, 0 generals, 0 SOSs, and 0 indicators.
Presolve time = 0.00 sec. (0.14 ticks)
Probing time = 0.00 sec. (0.04 ticks)
Tried aggregator 1 time.
Reduced MIP has 1 rows, 365 columns, and 364 nonzeros.
Reduced MIP has 364 binaries, 0 generals, 0 SOSs, and 0 indicators.
Presolve time = 0.00 sec. (0.11 ticks)
Represolve time = 0.25 sec. (52.53 ticks)
Probing time = 0.00 sec. (0.04 ticks)
MIP emphasis: balance optimality and feasibility.
MIP search method: dynamic search.
Parallel mode: none, using 1 thread.
Root relaxation solution time = 0.00 sec. (7.72 ticks)

        Nodes                                         Cuts/
   Node  Left     Objective  IInf  Best Integer    Best Bound    ItCnt     Gap

*     0+    0                         3240.0108     3245.0543             0.16%
      0     0     3245.0543    31     3240.0108     3245.0543     5805    0.16%
      0     0     3245.0356    32     3240.0108 UserPurge2: 1     5815    0.16%
      0     0     3245.0217    33     3240.0108 UserPurge2: 1     5835    0.15%
      0     0     3245.0104    34     3240.0108 UserPurge2: 1     5849    0.15%
      0     0     3244.9918    35     3240.0108 UserPurge2: 1     5863    0.15%
      0     0     3244.9309    34     3240.0108 UserPurge2: 1     5890    0.15%
      0     0     3244.8794    34     3240.0108 UserPurge2: 1     5911    0.15%
      0     0     3244.8567    34     3240.0108 UserPurge2: 1     5925    0.15%
      0     0     3244.8279    34     3240.0108 UserPurge2: 1     5945    0.15%
      0     0     3244.8179    34     3240.0108 UserPurge2: 1     5962    0.15%
      0     0     3244.7978    35     3240.0108 UserPurge2: 1     5978    0.15%
      0     0     3244.7436    34     3240.0108 UserPurge2: 1     5999    0.15%
      0     0     3244.7289    34     3240.0108 UserPurge2: 1     6010    0.15%
      0     0     3244.7146    35     3240.0108 UserPurge2: 1     6029    0.15%
      0     0     3244.6929    36     3240.0108 UserPurge2: 1     6046    0.14%
      0     0     3244.6676    34     3240.0108 UserPurge2: 1     6077    0.14%
      0     0     3244.6552    33     3240.0108 UserPurge2: 1     6089    0.14%
      0     0     3244.6468    33     3240.0108 UserPurge2: 1     6099    0.14%
      0     0     3244.6319    34     3240.0108 UserPurge2: 1     6116    0.14%
      0     0     3244.6109    33     3240.0108 UserPurge2: 1     6130    0.14%
      0     0     3244.5948    34     3240.0108 UserPurge2: 1     6141    0.14%
      0     0     3244.5720    33     3240.0108 UserPurge2: 1     6159    0.14%
      0     0     3244.5503    34     3240.0108 UserPurge2: 1     6170    0.14%
      0     0     3244.5388    35     3240.0108 UserPurge2: 1     6178    0.14%
      0     0     3244.5151    36     3240.0108 UserPurge2: 1     6188    0.14%
      0     0     3244.4991    35     3240.0108 UserPurge2: 1     6198    0.14%
      0     0     3244.4691    35     3240.0108 UserPurge2: 1     6215    0.14%
      0     0     3244.4586    36     3240.0108 UserPurge2: 1     6232    0.14%
      0     0     3244.4376    37     3240.0108 UserPurge2: 1     6251    0.14%
      0     0     3244.4331    38     3240.0108 UserPurge2: 1     6264    0.14%
      0     0     3244.3931    36     3240.0108 UserPurge2: 1     6295    0.14%
      0     0     3244.3760    36     3240.0108 UserPurge2: 1     6313    0.13%
      0     0     3244.3133    35     3240.0108 UserPurge2: 1     6337    0.13%
      0     0     3244.2672    36     3240.0108 UserPurge2: 1     6361    0.13%
      0     0     3244.2189    36     3240.0108 UserPurge2: 1     6381    0.13%
      0     0     3244.1901    36     3240.0108 UserPurge2: 1     6397    0.13%
      0     0     3244.1636    37     3240.0108 UserPurge2: 1     6415    0.13%
      0     0     3244.1505    38     3240.0108 UserPurge2: 1     6428    0.13%
      0     0     3244.1331    36     3240.0108 UserPurge2: 1     6439    0.13%
      0     0     3244.1256    36     3240.0108 UserPurge2: 1     6458    0.13%
      0     0     3244.0875    36     3240.0108 UserPurge2: 1     6483    0.13%
      0     0     3244.0769    36     3240.0108 UserPurge2: 1     6498    0.13%
      0     0     3244.0686    37     3240.0108 UserPurge2: 1     6507    0.13%
      0     0     3244.0484    38     3240.0108 UserPurge2: 1     6523    0.12%
      0     0     3244.0136    39     3240.0108 UserPurge2: 1     6544    0.12%
      0     0     3243.8978    37     3240.0108 UserPurge2: 1     6581    0.12%
      0     0     3243.8595    36     3240.0108 UserPurge2: 1     6597    0.12%
      0     0     3243.8397    36     3240.0108 UserPurge2: 1     6614    0.12%
      0     0     3243.8216    36     3240.0108 UserPurge2: 1     6629    0.12%
      0     0     3243.8057    37     3240.0108 UserPurge2: 1     6643    0.12%
      0     0     3243.7705    37     3240.0108 UserPurge2: 1     6669    0.12%
      0     0     3243.7117    36     3240.0108 UserPurge2: 1     6683    0.11%
      0     0     3243.6976    36     3240.0108 UserPurge2: 1     6701    0.11%
      0     0     3243.6795    37     3240.0108 UserPurge2: 1     6718    0.11%
      0     0     3243.6496    35     3240.0108 UserPurge2: 1     6746    0.11%
      0     0     3243.6364    35     3240.0108 UserPurge2: 1     6760    0.11%
      0     0     3243.6260    36     3240.0108 UserPurge2: 1     6776    0.11%
      0     0     3243.6180    36     3240.0108 UserPurge2: 1     6792    0.11%
      0     0     3243.5943    36     3240.0108 UserPurge2: 1     6812    0.11%
      0     0     3243.5557    35     3240.0108 UserPurge2: 1     6831    0.11%
      0     0     3243.5503    35     3240.0108 UserPurge2: 1     6839    0.11%
      0     0     3243.5257    35     3240.0108 UserPurge2: 1     6856    0.11%
      0     0     3243.5143    35     3240.0108 UserPurge2: 1     6867    0.11%
      0     0     3243.5097    35     3240.0108 UserPurge2: 1     6875    0.11%
      0     0     3243.5012    35     3240.0108 UserPurge2: 1     6880    0.11%
      0     0     3243.4921    36     3240.0108 UserPurge2: 1     6894    0.11%
      0     0     3243.4772    35     3240.0108 UserPurge2: 1     6911    0.11%
      0     0     3243.4654    36     3240.0108 UserPurge2: 1     6925    0.11%
      0     0     3243.4320    35     3240.0108 UserPurge2: 1     6954    0.11%
      0     0     3243.4289    36     3240.0108 UserPurge2: 1     6963    0.11%
      0     0     3243.4236    37     3240.0108 UserPurge2: 1     6973    0.11%
      0     0     3243.4131    37     3240.0108 UserPurge2: 1     6987    0.11%
      0     0     3243.4117    38     3240.0108 UserPurge2: 1     6991    0.10%
      0     0     3243.4104    37     3240.0108 UserPurge2: 1     6996    0.10%
      0     0     3243.3881    37     3240.0108 UserPurge2: 1     7020    0.10%
      0     0     3243.3782    38     3240.0108 UserPurge2: 1     7033    0.10%
      0     0     3243.3675    38     3240.0108 UserPurge2: 1     7047    0.10%
      0     0     3243.3605    38     3240.0108 UserPurge2: 1     7061    0.10%
      0     0     3243.3516    39     3240.0108 UserPurge2: 1     7072    0.10%
      0     0     3243.3447    39     3240.0108 UserPurge2: 1     7088    0.10%
      0     0     3243.3356    39     3240.0108 UserPurge2: 1     7104    0.10%
      0     0     3243.3246    39     3240.0108 UserPurge2: 1     7121    0.10%
      0     0     3243.3183    39     3240.0108 UserPurge2: 1     7130    0.10%
      0     0     3243.3147    40     3240.0108 UserPurge2: 1     7134    0.10%
      0     0     3243.2993    41     3240.0108 UserPurge2: 1     7152    0.10%
      0     0     3243.2657    38     3240.0108 UserPurge2: 1     7186    0.10%
      0     0     3243.2486    38     3240.0108 UserPurge2: 1     7198    0.10%
      0     0     3243.2368    36     3240.0108 UserPurge2: 1     7221    0.10%
      0     0     3243.2203    36     3240.0108 UserPurge2: 1     7241    0.10%
      0     0     3243.2076    37     3240.0108 UserPurge2: 1     7257    0.10%
      0     0     3243.2035    37     3240.0108 UserPurge2: 1     7269    0.10%
      0     0     3243.1883    37     3240.0108 UserPurge2: 1     7281    0.10%
      0     0     3243.1793    38     3240.0108 UserPurge2: 1     7296    0.10%
      0     0     3243.1658    38     3240.0108 UserPurge2: 1     7318    0.10%
      0     0     3243.1584    38     3240.0108 UserPurge2: 1     7334    0.10%
      0     0     3243.1526    39     3240.0108 UserPurge2: 1     7353    0.10%
      0     0     3243.1435    40     3240.0108 UserPurge2: 1     7376    0.10%
      0     0     3243.1392    41     3240.0108 UserPurge2: 1     7392    0.10%
      0     0     3243.1356    41     3240.0108 UserPurge2: 1     7407    0.10%
      0     0     3243.1333    42     3240.0108 UserPurge2: 1     7420    0.10%
      0     0     3243.1292    43     3240.0108 UserPurge2: 1     7438    0.10%
      0     0     3243.1219    42     3240.0108 UserPurge2: 1     7454    0.10%
      0     0     3243.1077    42     3240.0108 UserPurge2: 1     7479    0.10%
      0     0     3243.0788    41     3240.0108 UserPurge2: 1     7517    0.09%
      0     0     3243.0670    39     3240.0108 UserPurge2: 1     7538    0.09%
      0     0     3243.0462    37     3240.0108 UserPurge2: 1     7557    0.09%
      0     0     3243.0410    38     3240.0108 UserPurge2: 1     7573    0.09%
      0     0     3243.0326    39     3240.0108 UserPurge2: 1     7584    0.09%
      0     0     3243.0250    38     3240.0108 UserPurge2: 1     7600    0.09%
      0     2     3243.0250    38     3240.0108     3243.0247     7600    0.09%
Elapsed time = 52.09 sec. (2392.29 ticks, tree = 0.01 MB, solutions = 4)
      1     3     3240.9933     9     3240.0108     3243.0245    14987    0.09%
      2     4     3240.5857    14     3240.0108     3243.0245    24809    0.09%
      3     5     3240.0814     2     3240.0108     3243.0245    27089    0.09%
      6     4     3240.6010    18     3240.0108     3240.6010    32341    0.02%
      7     5     3240.2651    14     3240.0108     3240.6009    38227    0.02%
     10     6     3240.2072     4     3240.0108     3240.6009    39143    0.02%
     12     6     3240.1815     3     3240.0108     3240.6009    39725    0.02%
     16     6     3240.5704    10     3240.0108     3240.5857    41126    0.02%
*    18     4      integral     0     3240.5237     3240.5857    41218    0.00%

User cuts applied:  3792

Root node processing (before b&c):
  Real time             =   52.09 sec. (2396.24 ticks)
Sequential b&c:
  Real time             =  173.32 sec. (28224.82 ticks)
                          ------------
Total (root+branch&cut) =  225.41 sec. (30621.06 ticks)
@Parameters: 
is_S_cut                                true
is_add_all_yinF                         true
is_start_value                          true
is_usercut                              true
is_visualization                        false
uc_only_rootnode                        false

data                                    Qi
fn                                      data/Qi/instance_800_500.csv
mode                                    NewSubmodular
solver                                  cplex

p                                       10
r                                       2

EPS                                     1.0e-06
EPS_vio                                 1.0e-04
beta                                    0.10
gap                                     0.00
nodelimit                               Inf
timelimit                               7200.00


@PrintInfos
ItCnt: 41474
Current gap: 0.00 %
Termination Status: OPTIMAL
Primal Status: FEASIBLE_POINT
Solve Time: 225.41 sec
Objective Value: 3240.523654
Number of Nodes:     23

CutInfo: [phase] num / time (sec) 
ZLP             [phase1]     0 / 0.00 [rLC]     0 / 0.00 [rUC]     0 / 0.00 [sLC]     0 / 0.00 [sUC]     0 / 0.00 
OldSubmodular   [phase1]     0 / 0.00 [rLC]     0 / 0.00 [rUC]     0 / 0.00 [sLC]     0 / 0.00 [sUC]     0 / 0.00 
NewSubmodular   [phase1]     0 / 0.00 [rLC]   251 / 21.40 [rUC]  1895 / 25.99 [sLC]     0 / 1.50 [sUC]  3753 / 147.84 
PMP             [phase1]     0 / 0.00 [rLC]    11 / 17.77 [rUC]     0 / 0.00 [sLC]     1 / 1.50 [sUC]    28 / 58.55 
Separation Round: [phase1] 0  [rLC] 126  [rUC] 404  [sLC] 1  [sUC] 950
Root Best Bound 3243.024517
Root Best Integer: 3240.010766
Best Bound: 3240.523654
Best Integer: 3240.523654

